Gurobi 12.0.3:   lim:time = 14400

  mip:bestbound = 1

Set parameter LogToConsole to value 1

  tech:outlev = 1

Set parameter Cuts to value 3

  cut:cuts = 3

Set parameter Presolve to value 2

  pre:solve = 2

Set parameter MIPFocus to value 2

  mip:focus = 2

Set parameter Symmetry to value 2

  mip:symmetry = 2

Set parameter InfUnbdInfo to value 1

Gurobi Optimizer version 12.0.3 build v12.0.3rc0 (win64 - Windows 11.0 (26100.2))



CPU model: 12th Gen Intel(R) Core(TM) i7-12700, instruction set [SSE2|AVX|AVX2]

Thread count: 12 physical cores, 20 logical processors, using up to 20 threads



Non-default parameters:

TimeLimit  14400

MIPFocus  2

Symmetry  2

Cuts  3

InfUnbdInfo  1

Presolve  2



Optimize a model with 367 rows, 602 columns and 3461 nonzeros

Model fingerprint: 0x550c310e

Model has 1 quadratic objective term

Model has 5 quadratic constraints

Variable types: 33 continuous, 569 integer (0 binary)

Coefficient statistics:

  Matrix range     [1e+00, 1e+05]

  QMatrix range    [1e+00, 1e+00]

  QLMatrix range   [1e+00, 2e+01]

  Objective range  [4e+00, 1e+02]

  QObjective range [3e+00, 3e+00]

  Bounds range     [1e+00, 1e+02]

  RHS range        [1e+00, 1e+05]

  QRHS range       [1e+02, 1e+02]

Presolve removed 44 rows and 103 columns

Presolve time: 0.07s

Presolved: 677 rows, 817 columns, 4791 nonzeros

Variable types: 14 continuous, 803 integer (691 binary)

Found heuristic solution: objective 477.4400000

Root relaxation presolve removed 35 rows and 0 columns

Root relaxation presolved: 397 rows, 625 columns, 5066 nonzeros





Root relaxation: objective 1.432458e+02, 82 iterations, 0.01 seconds (0.01 work units)



    Nodes    |    Current Node    |     Objective Bounds      |     Work

 Expl Unexpl |  Obj  Depth IntInf | Incumbent    BestBd   Gap | It/Node Time



     0     0  143.24583    0   36  477.44000  143.24583  70.0%     -    0s

H    0     0                     264.0200000  143.24583  45.7%     -    0s

H    0     0                     238.5600000  143.24583  40.0%     -    0s

     0     0  173.58000    0   12  238.56000  173.58000  27.2%     -    0s

     0     0  173.58000    0   12  238.56000  173.58000  27.2%     -    0s

H    0     0                     237.7200000  173.58000  27.0%     -    0s

     0     0  173.58169    0   12  237.72000  173.58169  27.0%     -    0s

H    0     0                     236.8200000  173.58169  26.7%     -    0s

H    0     0                     206.6900000  173.58169  16.0%     -    0s

     0     0  173.68321    0   12  206.69000  173.68321  16.0%     -    0s

     0     0  173.68321    0   38  206.69000  173.68321  16.0%     -    0s

     0     0  173.68321    0   18  206.69000  173.68321  16.0%     -    0s

     0     0  173.68321    0   19  206.69000  173.68321  16.0%     -    0s

H    0     0                     206.6300000  173.68321  15.9%     -    0s

     0     0  173.68321    0   19  206.63000  173.68321  15.9%     -    0s

     0     0  174.30683    0   14  206.63000  174.30683  15.6%     -    0s

     0     0  182.82000    0   14  206.63000  182.82000  11.5%     -    0s

     0     0  192.05515    0   22  206.63000  192.05515  7.05%     -    0s

     0     0  192.05515    0   22  206.63000  192.05515  7.05%     -    0s

     0     0  192.05515    0   23  206.63000  192.05515  7.05%     -    0s

     0     0  192.05515    0   18  206.63000  192.05515  7.05%     -    0s

     0     0  192.06497    0   31  206.63000  192.06497  7.05%     -    0s

     0     0  206.63000    0   17  206.63000  206.63000  0.00%     -    0s



Cutting planes:

  Learned: 7

  Gomory: 9

  Lift-and-project: 9

  Flow cover: 4

  Inf proof: 1

  Zero half: 2

  RLT: 9



Explored 1 nodes (589 simplex iterations) in 0.52 seconds (0.46 work units)

Thread count was 20 (of 20 available processors)



Solution count 7: 206.63 206.69 236.82 ... 477.44



Optimal solution found (tolerance 1.00e-04)

Best objective 2.066300000000e+02, best bound 2.066300000000e+02, gap 0.0000%



AMPL MP initial flat model has 602 variables (0 integer, 569 binary);

Objectives: 1 quadratic; 

Constraints:  367 linear; 5 quadratic;



AMPL MP final model has 602 variables (0 integer, 569 binary);

Objectives: 1 quadratic; 

Constraints:  367 linear; 5 quadratic;





-----RESULTS INFO-----
running_time:  0.547
TC.best_bound:  206.63
TC:  206.63
MIP Gap (%):  0
=== Vehicle Routes ===
Vehicle 1: 0 → 8
Vehicle 1: 1 → 17
Vehicle 1: 2 → 6
Vehicle 1: 3 → 15
Vehicle 1: 6 → 1
Vehicle 1: 8 → 3
Vehicle 1: 15 → 2
Vehicle 2: 0 → 17
Vehicle 3: 0 → 17

=== Full Vehicle Routes ===
Vehicle 1: 0 → 8 → 3 → 15 → 2 → 6 → 1 → 0 (93<100)
Vehicle 2: 0 → 0 (0<100)
Vehicle 3: 0 → 0 (0<100)
Arc used by MRT line: y variables:
MRT used: 8 → 9
Customer assigment to PL: u variables:
4 9
5 15
7 15
Node is served by regular vehicle: g variables:
1
2
3
6
15
8
Customer assigment to Home delivery: gm variables:
1
2
3
6
Node total demands: ntd variables:
1 19 1
2 12 1
3 8 1
6 16 1
7 0 0
14 0 0
15 23 1
16 0 0
8 15 1
9 0 0
10 0 0
11 0 0
12 0 0
13 0 0
Customer's demand delivered to PL: l variables:
4
5
7
Lockers load <= capacity:
0 <= 97
23 <= 81
0 <= 83
0 <= 82
15 <= 90
0 <= 72
0 <= 89
0 <= 89
0 <= 92
